p cnf 312 2304
-1 -85 0
-1 -86 0
85 -85 0
86 -86 0
-15 -97 0
-15 -98 0
97 -97 0
98 -98 0
-29 -109 0
-29 -110 0
109 -109 0
110 -110 0
-43 -121 0
-43 -122 0
121 -121 0
122 -122 0
-57 -133 0
-57 -134 0
133 -133 0
134 -134 0
-71 -145 0
-71 -146 0
145 -145 0
146 -146 0
2 -85 0
2 -86 0
85 -85 0
86 -86 0
16 -97 0
16 -98 0
97 -97 0
98 -98 0
30 -109 0
30 -110 0
109 -109 0
110 -110 0
44 -121 0
44 -122 0
121 -121 0
122 -122 0
58 -133 0
58 -134 0
133 -133 0
134 -134 0
72 -145 0
72 -146 0
145 -145 0
146 -146 0
3 -85 0
3 -86 0
85 -85 0
86 -86 0
17 -97 0
17 -98 0
97 -97 0
98 -98 0
31 -109 0
31 -110 0
109 -109 0
110 -110 0
45 -121 0
45 -122 0
121 -121 0
122 -122 0
59 -133 0
59 -134 0
133 -133 0
134 -134 0
73 -145 0
73 -146 0
145 -145 0
146 -146 0
4 -157 -85 0
-4 157 -85 0
4 157 -86 0
-4 -157 -86 0
18 -157 -97 0
-18 157 -97 0
18 157 -98 0
-18 -157 -98 0
32 -157 -109 0
-32 157 -109 0
32 157 -110 0
-32 -157 -110 0
46 -157 -121 0
-46 157 -121 0
46 157 -122 0
-46 -157 -122 0
60 -157 -133 0
-60 157 -133 0
60 157 -134 0
-60 -157 -134 0
74 -157 -145 0
-74 157 -145 0
74 157 -146 0
-74 -157 -146 0
5 -85 0
5 -86 0
85 -85 0
86 -86 0
19 -97 0
19 -98 0
97 -97 0
98 -98 0
33 -109 0
33 -110 0
109 -109 0
110 -110 0
47 -121 0
47 -122 0
121 -121 0
122 -122 0
61 -133 0
61 -134 0
133 -133 0
134 -134 0
75 -145 0
75 -146 0
145 -145 0
146 -146 0
-6 -85 0
-6 -86 0
85 -85 0
86 -86 0
-20 -97 0
-20 -98 0
97 -97 0
98 -98 0
-34 -109 0
-34 -110 0
109 -109 0
110 -110 0
-48 -121 0
-48 -122 0
121 -121 0
122 -122 0
-62 -133 0
-62 -134 0
133 -133 0
134 -134 0
-76 -145 0
-76 -146 0
145 -145 0
146 -146 0
7 -85 0
7 -86 0
85 -85 0
86 -86 0
21 -97 0
21 -98 0
97 -97 0
98 -98 0
35 -109 0
35 -110 0
109 -109 0
110 -110 0
49 -121 0
49 -122 0
121 -121 0
122 -122 0
63 -133 0
63 -134 0
133 -133 0
134 -134 0
77 -145 0
77 -146 0
145 -145 0
146 -146 0
8 -158 -85 0
-8 158 -85 0
8 158 -86 0
-8 -158 -86 0
22 -158 -97 0
-22 158 -97 0
22 158 -98 0
-22 -158 -98 0
36 -158 -109 0
-36 158 -109 0
36 158 -110 0
-36 -158 -110 0
50 -158 -121 0
-50 158 -121 0
50 158 -122 0
-50 -158 -122 0
64 -158 -133 0
-64 158 -133 0
64 158 -134 0
-64 -158 -134 0
78 -158 -145 0
-78 158 -145 0
78 158 -146 0
-78 -158 -146 0
-9 -85 0
-9 -86 0
85 -85 0
86 -86 0
-23 -97 0
-23 -98 0
97 -97 0
98 -98 0
-37 -109 0
-37 -110 0
109 -109 0
110 -110 0
-51 -121 0
-51 -122 0
121 -121 0
122 -122 0
-65 -133 0
-65 -134 0
133 -133 0
134 -134 0
-79 -145 0
-79 -146 0
145 -145 0
146 -146 0
10 -159 -85 0
-10 159 -85 0
10 159 -86 0
-10 -159 -86 0
24 -159 -97 0
-24 159 -97 0
24 159 -98 0
-24 -159 -98 0
38 -159 -109 0
-38 159 -109 0
38 159 -110 0
-38 -159 -110 0
52 -159 -121 0
-52 159 -121 0
52 159 -122 0
-52 -159 -122 0
66 -159 -133 0
-66 159 -133 0
66 159 -134 0
-66 -159 -134 0
80 -159 -145 0
-80 159 -145 0
80 159 -146 0
-80 -159 -146 0
11 -160 -85 0
-11 160 -85 0
11 160 -86 0
-11 -160 -86 0
25 -160 -97 0
-25 160 -97 0
25 160 -98 0
-25 -160 -98 0
39 -160 -109 0
-39 160 -109 0
39 160 -110 0
-39 -160 -110 0
53 -160 -121 0
-53 160 -121 0
53 160 -122 0
-53 -160 -122 0
67 -160 -133 0
-67 160 -133 0
67 160 -134 0
-67 -160 -134 0
81 -160 -145 0
-81 160 -145 0
81 160 -146 0
-81 -160 -146 0
12 -85 0
12 -86 0
85 -85 0
86 -86 0
26 -97 0
26 -98 0
97 -97 0
98 -98 0
40 -109 0
40 -110 0
109 -109 0
110 -110 0
54 -121 0
54 -122 0
121 -121 0
122 -122 0
68 -133 0
68 -134 0
133 -133 0
134 -134 0
82 -145 0
82 -146 0
145 -145 0
146 -146 0
13 -161 -85 0
-13 161 -85 0
13 161 -86 0
-13 -161 -86 0
27 -161 -97 0
-27 161 -97 0
27 161 -98 0
-27 -161 -98 0
41 -161 -109 0
-41 161 -109 0
41 161 -110 0
-41 -161 -110 0
55 -161 -121 0
-55 161 -121 0
55 161 -122 0
-55 -161 -122 0
69 -161 -133 0
-69 161 -133 0
69 161 -134 0
-69 -161 -134 0
83 -161 -145 0
-83 161 -145 0
83 161 -146 0
-83 -161 -146 0
14 -162 -85 0
-14 162 -85 0
14 162 -86 0
-14 -162 -86 0
28 -162 -97 0
-28 162 -97 0
28 162 -98 0
-28 -162 -98 0
42 -162 -109 0
-42 162 -109 0
42 162 -110 0
-42 -162 -110 0
56 -162 -121 0
-56 162 -121 0
56 162 -122 0
-56 -162 -122 0
70 -162 -133 0
-70 162 -133 0
70 162 -134 0
-70 -162 -134 0
84 -162 -145 0
-84 162 -145 0
84 162 -146 0
-84 -162 -146 0
-241 85 0
241 -85 0
-242 86 0
241 -86 0
-241 -85 0
-242 -86 0
-253 85 241 0
253 -85 0
253 -241 0
-254 86 242 0
254 -86 0
254 -242 0
-253 -97 0
-254 -98 0
-265 97 253 0
265 -97 0
265 -253 0
-266 98 254 0
266 -98 0
266 -254 0
-265 -109 0
-266 -110 0
-277 109 265 0
277 -109 0
277 -265 0
-278 110 266 0
278 -110 0
278 -266 0
-277 -121 0
-278 -122 0
-289 121 277 0
289 -121 0
289 -277 0
-290 122 278 0
290 -122 0
290 -278 0
-289 -133 0
-290 -134 0
-301 133 289 0
301 -133 0
301 -289 0
-302 134 290 0
302 -134 0
302 -290 0
-301 -145 0
-302 -146 0
301 0
302 0
1 -163 -87 0
-1 163 -87 0
1 163 -88 0
-1 -163 -88 0
15 -163 -99 0
-15 163 -99 0
15 163 -100 0
-15 -163 -100 0
29 -163 -111 0
-29 163 -111 0
29 163 -112 0
-29 -163 -112 0
43 -163 -123 0
-43 163 -123 0
43 163 -124 0
-43 -163 -124 0
57 -163 -135 0
-57 163 -135 0
57 163 -136 0
-57 -163 -136 0
71 -163 -147 0
-71 163 -147 0
71 163 -148 0
-71 -163 -148 0
2 -87 0
2 -88 0
87 -87 0
88 -88 0
16 -99 0
16 -100 0
99 -99 0
100 -100 0
30 -111 0
30 -112 0
111 -111 0
112 -112 0
44 -123 0
44 -124 0
123 -123 0
124 -124 0
58 -135 0
58 -136 0
135 -135 0
136 -136 0
72 -147 0
72 -148 0
147 -147 0
148 -148 0
3 -87 0
3 -88 0
87 -87 0
88 -88 0
17 -99 0
17 -100 0
99 -99 0
100 -100 0
31 -111 0
31 -112 0
111 -111 0
112 -112 0
45 -123 0
45 -124 0
123 -123 0
124 -124 0
59 -135 0
59 -136 0
135 -135 0
136 -136 0
73 -147 0
73 -148 0
147 -147 0
148 -148 0
4 -87 0
4 -88 0
87 -87 0
88 -88 0
18 -99 0
18 -100 0
99 -99 0
100 -100 0
32 -111 0
32 -112 0
111 -111 0
112 -112 0
46 -123 0
46 -124 0
123 -123 0
124 -124 0
60 -135 0
60 -136 0
135 -135 0
136 -136 0
74 -147 0
74 -148 0
147 -147 0
148 -148 0
5 -164 -87 0
-5 164 -87 0
5 164 -88 0
-5 -164 -88 0
19 -164 -99 0
-19 164 -99 0
19 164 -100 0
-19 -164 -100 0
33 -164 -111 0
-33 164 -111 0
33 164 -112 0
-33 -164 -112 0
47 -164 -123 0
-47 164 -123 0
47 164 -124 0
-47 -164 -124 0
61 -164 -135 0
-61 164 -135 0
61 164 -136 0
-61 -164 -136 0
75 -164 -147 0
-75 164 -147 0
75 164 -148 0
-75 -164 -148 0
-6 -87 0
-6 -88 0
87 -87 0
88 -88 0
-20 -99 0
-20 -100 0
99 -99 0
100 -100 0
-34 -111 0
-34 -112 0
111 -111 0
112 -112 0
-48 -123 0
-48 -124 0
123 -123 0
124 -124 0
-62 -135 0
-62 -136 0
135 -135 0
136 -136 0
-76 -147 0
-76 -148 0
147 -147 0
148 -148 0
7 -165 -87 0
-7 165 -87 0
7 165 -88 0
-7 -165 -88 0
21 -165 -99 0
-21 165 -99 0
21 165 -100 0
-21 -165 -100 0
35 -165 -111 0
-35 165 -111 0
35 165 -112 0
-35 -165 -112 0
49 -165 -123 0
-49 165 -123 0
49 165 -124 0
-49 -165 -124 0
63 -165 -135 0
-63 165 -135 0
63 165 -136 0
-63 -165 -136 0
77 -165 -147 0
-77 165 -147 0
77 165 -148 0
-77 -165 -148 0
8 -87 0
8 -88 0
87 -87 0
88 -88 0
22 -99 0
22 -100 0
99 -99 0
100 -100 0
36 -111 0
36 -112 0
111 -111 0
112 -112 0
50 -123 0
50 -124 0
123 -123 0
124 -124 0
64 -135 0
64 -136 0
135 -135 0
136 -136 0
78 -147 0
78 -148 0
147 -147 0
148 -148 0
-9 -87 0
-9 -88 0
87 -87 0
88 -88 0
-23 -99 0
-23 -100 0
99 -99 0
100 -100 0
-37 -111 0
-37 -112 0
111 -111 0
112 -112 0
-51 -123 0
-51 -124 0
123 -123 0
124 -124 0
-65 -135 0
-65 -136 0
135 -135 0
136 -136 0
-79 -147 0
-79 -148 0
147 -147 0
148 -148 0
10 -166 -87 0
-10 166 -87 0
10 166 -88 0
-10 -166 -88 0
24 -166 -99 0
-24 166 -99 0
24 166 -100 0
-24 -166 -100 0
38 -166 -111 0
-38 166 -111 0
38 166 -112 0
-38 -166 -112 0
52 -166 -123 0
-52 166 -123 0
52 166 -124 0
-52 -166 -124 0
66 -166 -135 0
-66 166 -135 0
66 166 -136 0
-66 -166 -136 0
80 -166 -147 0
-80 166 -147 0
80 166 -148 0
-80 -166 -148 0
11 -87 0
11 -88 0
87 -87 0
88 -88 0
25 -99 0
25 -100 0
99 -99 0
100 -100 0
39 -111 0
39 -112 0
111 -111 0
112 -112 0
53 -123 0
53 -124 0
123 -123 0
124 -124 0
67 -135 0
67 -136 0
135 -135 0
136 -136 0
81 -147 0
81 -148 0
147 -147 0
148 -148 0
12 -87 0
12 -88 0
87 -87 0
88 -88 0
26 -99 0
26 -100 0
99 -99 0
100 -100 0
40 -111 0
40 -112 0
111 -111 0
112 -112 0
54 -123 0
54 -124 0
123 -123 0
124 -124 0
68 -135 0
68 -136 0
135 -135 0
136 -136 0
82 -147 0
82 -148 0
147 -147 0
148 -148 0
13 -87 0
13 -88 0
87 -87 0
88 -88 0
27 -99 0
27 -100 0
99 -99 0
100 -100 0
41 -111 0
41 -112 0
111 -111 0
112 -112 0
55 -123 0
55 -124 0
123 -123 0
124 -124 0
69 -135 0
69 -136 0
135 -135 0
136 -136 0
83 -147 0
83 -148 0
147 -147 0
148 -148 0
14 -87 0
14 -88 0
87 -87 0
88 -88 0
28 -99 0
28 -100 0
99 -99 0
100 -100 0
42 -111 0
42 -112 0
111 -111 0
112 -112 0
56 -123 0
56 -124 0
123 -123 0
124 -124 0
70 -135 0
70 -136 0
135 -135 0
136 -136 0
84 -147 0
84 -148 0
147 -147 0
148 -148 0
-243 87 0
243 -87 0
-244 88 0
243 -88 0
-243 -87 0
-244 -88 0
-255 87 243 0
255 -87 0
255 -243 0
-256 88 244 0
256 -88 0
256 -244 0
-255 -99 0
-256 -100 0
-267 99 255 0
267 -99 0
267 -255 0
-268 100 256 0
268 -100 0
268 -256 0
-267 -111 0
-268 -112 0
-279 111 267 0
279 -111 0
279 -267 0
-280 112 268 0
280 -112 0
280 -268 0
-279 -123 0
-280 -124 0
-291 123 279 0
291 -123 0
291 -279 0
-292 124 280 0
292 -124 0
292 -280 0
-291 -135 0
-292 -136 0
-303 135 291 0
303 -135 0
303 -291 0
-304 136 292 0
304 -136 0
304 -292 0
-303 -147 0
-304 -148 0
303 0
304 0
1 -89 0
1 -90 0
89 -89 0
90 -90 0
15 -101 0
15 -102 0
101 -101 0
102 -102 0
29 -113 0
29 -114 0
113 -113 0
114 -114 0
43 -125 0
43 -126 0
125 -125 0
126 -126 0
57 -137 0
57 -138 0
137 -137 0
138 -138 0
71 -149 0
71 -150 0
149 -149 0
150 -150 0
2 -89 0
2 -90 0
89 -89 0
90 -90 0
16 -101 0
16 -102 0
101 -101 0
102 -102 0
30 -113 0
30 -114 0
113 -113 0
114 -114 0
44 -125 0
44 -126 0
125 -125 0
126 -126 0
58 -137 0
58 -138 0
137 -137 0
138 -138 0
72 -149 0
72 -150 0
149 -149 0
150 -150 0
3 -89 0
3 -90 0
89 -89 0
90 -90 0
17 -101 0
17 -102 0
101 -101 0
102 -102 0
31 -113 0
31 -114 0
113 -113 0
114 -114 0
45 -125 0
45 -126 0
125 -125 0
126 -126 0
59 -137 0
59 -138 0
137 -137 0
138 -138 0
73 -149 0
73 -150 0
149 -149 0
150 -150 0
4 -167 -89 0
-4 167 -89 0
4 167 -90 0
-4 -167 -90 0
18 -167 -101 0
-18 167 -101 0
18 167 -102 0
-18 -167 -102 0
32 -167 -113 0
-32 167 -113 0
32 167 -114 0
-32 -167 -114 0
46 -167 -125 0
-46 167 -125 0
46 167 -126 0
-46 -167 -126 0
60 -167 -137 0
-60 167 -137 0
60 167 -138 0
-60 -167 -138 0
74 -167 -149 0
-74 167 -149 0
74 167 -150 0
-74 -167 -150 0
5 -168 -89 0
-5 168 -89 0
5 168 -90 0
-5 -168 -90 0
19 -168 -101 0
-19 168 -101 0
19 168 -102 0
-19 -168 -102 0
33 -168 -113 0
-33 168 -113 0
33 168 -114 0
-33 -168 -114 0
47 -168 -125 0
-47 168 -125 0
47 168 -126 0
-47 -168 -126 0
61 -168 -137 0
-61 168 -137 0
61 168 -138 0
-61 -168 -138 0
75 -168 -149 0
-75 168 -149 0
75 168 -150 0
-75 -168 -150 0
6 -169 -89 0
-6 169 -89 0
6 169 -90 0
-6 -169 -90 0
20 -169 -101 0
-20 169 -101 0
20 169 -102 0
-20 -169 -102 0
34 -169 -113 0
-34 169 -113 0
34 169 -114 0
-34 -169 -114 0
48 -169 -125 0
-48 169 -125 0
48 169 -126 0
-48 -169 -126 0
62 -169 -137 0
-62 169 -137 0
62 169 -138 0
-62 -169 -138 0
76 -169 -149 0
-76 169 -149 0
76 169 -150 0
-76 -169 -150 0
7 -170 -89 0
-7 170 -89 0
7 170 -90 0
-7 -170 -90 0
21 -170 -101 0
-21 170 -101 0
21 170 -102 0
-21 -170 -102 0
35 -170 -113 0
-35 170 -113 0
35 170 -114 0
-35 -170 -114 0
49 -170 -125 0
-49 170 -125 0
49 170 -126 0
-49 -170 -126 0
63 -170 -137 0
-63 170 -137 0
63 170 -138 0
-63 -170 -138 0
77 -170 -149 0
-77 170 -149 0
77 170 -150 0
-77 -170 -150 0
8 -171 -89 0
-8 171 -89 0
8 171 -90 0
-8 -171 -90 0
22 -171 -101 0
-22 171 -101 0
22 171 -102 0
-22 -171 -102 0
36 -171 -113 0
-36 171 -113 0
36 171 -114 0
-36 -171 -114 0
50 -171 -125 0
-50 171 -125 0
50 171 -126 0
-50 -171 -126 0
64 -171 -137 0
-64 171 -137 0
64 171 -138 0
-64 -171 -138 0
78 -171 -149 0
-78 171 -149 0
78 171 -150 0
-78 -171 -150 0
9 -172 -89 0
-9 172 -89 0
9 172 -90 0
-9 -172 -90 0
23 -172 -101 0
-23 172 -101 0
23 172 -102 0
-23 -172 -102 0
37 -172 -113 0
-37 172 -113 0
37 172 -114 0
-37 -172 -114 0
51 -172 -125 0
-51 172 -125 0
51 172 -126 0
-51 -172 -126 0
65 -172 -137 0
-65 172 -137 0
65 172 -138 0
-65 -172 -138 0
79 -172 -149 0
-79 172 -149 0
79 172 -150 0
-79 -172 -150 0
-10 -89 0
-10 -90 0
89 -89 0
90 -90 0
-24 -101 0
-24 -102 0
101 -101 0
102 -102 0
-38 -113 0
-38 -114 0
113 -113 0
114 -114 0
-52 -125 0
-52 -126 0
125 -125 0
126 -126 0
-66 -137 0
-66 -138 0
137 -137 0
138 -138 0
-80 -149 0
-80 -150 0
149 -149 0
150 -150 0
11 -89 0
11 -90 0
89 -89 0
90 -90 0
25 -101 0
25 -102 0
101 -101 0
102 -102 0
39 -113 0
39 -114 0
113 -113 0
114 -114 0
53 -125 0
53 -126 0
125 -125 0
126 -126 0
67 -137 0
67 -138 0
137 -137 0
138 -138 0
81 -149 0
81 -150 0
149 -149 0
150 -150 0
12 -89 0
12 -90 0
89 -89 0
90 -90 0
26 -101 0
26 -102 0
101 -101 0
102 -102 0
40 -113 0
40 -114 0
113 -113 0
114 -114 0
54 -125 0
54 -126 0
125 -125 0
126 -126 0
68 -137 0
68 -138 0
137 -137 0
138 -138 0
82 -149 0
82 -150 0
149 -149 0
150 -150 0
13 -89 0
13 -90 0
89 -89 0
90 -90 0
27 -101 0
27 -102 0
101 -101 0
102 -102 0
41 -113 0
41 -114 0
113 -113 0
114 -114 0
55 -125 0
55 -126 0
125 -125 0
126 -126 0
69 -137 0
69 -138 0
137 -137 0
138 -138 0
83 -149 0
83 -150 0
149 -149 0
150 -150 0
-14 -89 0
-14 -90 0
89 -89 0
90 -90 0
-28 -101 0
-28 -102 0
101 -101 0
102 -102 0
-42 -113 0
-42 -114 0
113 -113 0
114 -114 0
-56 -125 0
-56 -126 0
125 -125 0
126 -126 0
-70 -137 0
-70 -138 0
137 -137 0
138 -138 0
-84 -149 0
-84 -150 0
149 -149 0
150 -150 0
-245 89 0
245 -89 0
-246 90 0
245 -90 0
-245 -89 0
-246 -90 0
-257 89 245 0
257 -89 0
257 -245 0
-258 90 246 0
258 -90 0
258 -246 0
-257 -101 0
-258 -102 0
-269 101 257 0
269 -101 0
269 -257 0
-270 102 258 0
270 -102 0
270 -258 0
-269 -113 0
-270 -114 0
-281 113 269 0
281 -113 0
281 -269 0
-282 114 270 0
282 -114 0
282 -270 0
-281 -125 0
-282 -126 0
-293 125 281 0
293 -125 0
293 -281 0
-294 126 282 0
294 -126 0
294 -282 0
-293 -137 0
-294 -138 0
-305 137 293 0
305 -137 0
305 -293 0
-306 138 294 0
306 -138 0
306 -294 0
-305 -149 0
-306 -150 0
305 0
306 0
1 -91 0
1 -92 0
91 -91 0
92 -92 0
15 -103 0
15 -104 0
103 -103 0
104 -104 0
29 -115 0
29 -116 0
115 -115 0
116 -116 0
43 -127 0
43 -128 0
127 -127 0
128 -128 0
57 -139 0
57 -140 0
139 -139 0
140 -140 0
71 -151 0
71 -152 0
151 -151 0
152 -152 0
2 -91 0
2 -92 0
91 -91 0
92 -92 0
16 -103 0
16 -104 0
103 -103 0
104 -104 0
30 -115 0
30 -116 0
115 -115 0
116 -116 0
44 -127 0
44 -128 0
127 -127 0
128 -128 0
58 -139 0
58 -140 0
139 -139 0
140 -140 0
72 -151 0
72 -152 0
151 -151 0
152 -152 0
3 -91 0
3 -92 0
91 -91 0
92 -92 0
17 -103 0
17 -104 0
103 -103 0
104 -104 0
31 -115 0
31 -116 0
115 -115 0
116 -116 0
45 -127 0
45 -128 0
127 -127 0
128 -128 0
59 -139 0
59 -140 0
139 -139 0
140 -140 0
73 -151 0
73 -152 0
151 -151 0
152 -152 0
-4 -91 0
-4 -92 0
91 -91 0
92 -92 0
-18 -103 0
-18 -104 0
103 -103 0
104 -104 0
-32 -115 0
-32 -116 0
115 -115 0
116 -116 0
-46 -127 0
-46 -128 0
127 -127 0
128 -128 0
-60 -139 0
-60 -140 0
139 -139 0
140 -140 0
-74 -151 0
-74 -152 0
151 -151 0
152 -152 0
5 -91 0
5 -92 0
91 -91 0
92 -92 0
19 -103 0
19 -104 0
103 -103 0
104 -104 0
33 -115 0
33 -116 0
115 -115 0
116 -116 0
47 -127 0
47 -128 0
127 -127 0
128 -128 0
61 -139 0
61 -140 0
139 -139 0
140 -140 0
75 -151 0
75 -152 0
151 -151 0
152 -152 0
-6 -91 0
-6 -92 0
91 -91 0
92 -92 0
-20 -103 0
-20 -104 0
103 -103 0
104 -104 0
-34 -115 0
-34 -116 0
115 -115 0
116 -116 0
-48 -127 0
-48 -128 0
127 -127 0
128 -128 0
-62 -139 0
-62 -140 0
139 -139 0
140 -140 0
-76 -151 0
-76 -152 0
151 -151 0
152 -152 0
7 -91 0
7 -92 0
91 -91 0
92 -92 0
21 -103 0
21 -104 0
103 -103 0
104 -104 0
35 -115 0
35 -116 0
115 -115 0
116 -116 0
49 -127 0
49 -128 0
127 -127 0
128 -128 0
63 -139 0
63 -140 0
139 -139 0
140 -140 0
77 -151 0
77 -152 0
151 -151 0
152 -152 0
8 -173 -91 0
-8 173 -91 0
8 173 -92 0
-8 -173 -92 0
22 -173 -103 0
-22 173 -103 0
22 173 -104 0
-22 -173 -104 0
36 -173 -115 0
-36 173 -115 0
36 173 -116 0
-36 -173 -116 0
50 -173 -127 0
-50 173 -127 0
50 173 -128 0
-50 -173 -128 0
64 -173 -139 0
-64 173 -139 0
64 173 -140 0
-64 -173 -140 0
78 -173 -151 0
-78 173 -151 0
78 173 -152 0
-78 -173 -152 0
9 -174 -91 0
-9 174 -91 0
9 174 -92 0
-9 -174 -92 0
23 -174 -103 0
-23 174 -103 0
23 174 -104 0
-23 -174 -104 0
37 -174 -115 0
-37 174 -115 0
37 174 -116 0
-37 -174 -116 0
51 -174 -127 0
-51 174 -127 0
51 174 -128 0
-51 -174 -128 0
65 -174 -139 0
-65 174 -139 0
65 174 -140 0
-65 -174 -140 0
79 -174 -151 0
-79 174 -151 0
79 174 -152 0
-79 -174 -152 0
10 -175 -91 0
-10 175 -91 0
10 175 -92 0
-10 -175 -92 0
24 -175 -103 0
-24 175 -103 0
24 175 -104 0
-24 -175 -104 0
38 -175 -115 0
-38 175 -115 0
38 175 -116 0
-38 -175 -116 0
52 -175 -127 0
-52 175 -127 0
52 175 -128 0
-52 -175 -128 0
66 -175 -139 0
-66 175 -139 0
66 175 -140 0
-66 -175 -140 0
80 -175 -151 0
-80 175 -151 0
80 175 -152 0
-80 -175 -152 0
11 -176 -91 0
-11 176 -91 0
11 176 -92 0
-11 -176 -92 0
25 -176 -103 0
-25 176 -103 0
25 176 -104 0
-25 -176 -104 0
39 -176 -115 0
-39 176 -115 0
39 176 -116 0
-39 -176 -116 0
53 -176 -127 0
-53 176 -127 0
53 176 -128 0
-53 -176 -128 0
67 -176 -139 0
-67 176 -139 0
67 176 -140 0
-67 -176 -140 0
81 -176 -151 0
-81 176 -151 0
81 176 -152 0
-81 -176 -152 0
12 -91 0
12 -92 0
91 -91 0
92 -92 0
26 -103 0
26 -104 0
103 -103 0
104 -104 0
40 -115 0
40 -116 0
115 -115 0
116 -116 0
54 -127 0
54 -128 0
127 -127 0
128 -128 0
68 -139 0
68 -140 0
139 -139 0
140 -140 0
82 -151 0
82 -152 0
151 -151 0
152 -152 0
13 -177 -91 0
-13 177 -91 0
13 177 -92 0
-13 -177 -92 0
27 -177 -103 0
-27 177 -103 0
27 177 -104 0
-27 -177 -104 0
41 -177 -115 0
-41 177 -115 0
41 177 -116 0
-41 -177 -116 0
55 -177 -127 0
-55 177 -127 0
55 177 -128 0
-55 -177 -128 0
69 -177 -139 0
-69 177 -139 0
69 177 -140 0
-69 -177 -140 0
83 -177 -151 0
-83 177 -151 0
83 177 -152 0
-83 -177 -152 0
14 -91 0
14 -92 0
91 -91 0
92 -92 0
28 -103 0
28 -104 0
103 -103 0
104 -104 0
42 -115 0
42 -116 0
115 -115 0
116 -116 0
56 -127 0
56 -128 0
127 -127 0
128 -128 0
70 -139 0
70 -140 0
139 -139 0
140 -140 0
84 -151 0
84 -152 0
151 -151 0
152 -152 0
-247 91 0
247 -91 0
-248 92 0
247 -92 0
-247 -91 0
-248 -92 0
-259 91 247 0
259 -91 0
259 -247 0
-260 92 248 0
260 -92 0
260 -248 0
-259 -103 0
-260 -104 0
-271 103 259 0
271 -103 0
271 -259 0
-272 104 260 0
272 -104 0
272 -260 0
-271 -115 0
-272 -116 0
-283 115 271 0
283 -115 0
283 -271 0
-284 116 272 0
284 -116 0
284 -272 0
-283 -127 0
-284 -128 0
-295 127 283 0
295 -127 0
295 -283 0
-296 128 284 0
296 -128 0
296 -284 0
-295 -139 0
-296 -140 0
-307 139 295 0
307 -139 0
307 -295 0
-308 140 296 0
308 -140 0
308 -296 0
-307 -151 0
-308 -152 0
307 0
308 0
1 -178 -93 0
-1 178 -93 0
1 178 -94 0
-1 -178 -94 0
15 -178 -105 0
-15 178 -105 0
15 178 -106 0
-15 -178 -106 0
29 -178 -117 0
-29 178 -117 0
29 178 -118 0
-29 -178 -118 0
43 -178 -129 0
-43 178 -129 0
43 178 -130 0
-43 -178 -130 0
57 -178 -141 0
-57 178 -141 0
57 178 -142 0
-57 -178 -142 0
71 -178 -153 0
-71 178 -153 0
71 178 -154 0
-71 -178 -154 0
2 -93 0
2 -94 0
93 -93 0
94 -94 0
16 -105 0
16 -106 0
105 -105 0
106 -106 0
30 -117 0
30 -118 0
117 -117 0
118 -118 0
44 -129 0
44 -130 0
129 -129 0
130 -130 0
58 -141 0
58 -142 0
141 -141 0
142 -142 0
72 -153 0
72 -154 0
153 -153 0
154 -154 0
3 -93 0
3 -94 0
93 -93 0
94 -94 0
17 -105 0
17 -106 0
105 -105 0
106 -106 0
31 -117 0
31 -118 0
117 -117 0
118 -118 0
45 -129 0
45 -130 0
129 -129 0
130 -130 0
59 -141 0
59 -142 0
141 -141 0
142 -142 0
73 -153 0
73 -154 0
153 -153 0
154 -154 0
4 -93 0
4 -94 0
93 -93 0
94 -94 0
18 -105 0
18 -106 0
105 -105 0
106 -106 0
32 -117 0
32 -118 0
117 -117 0
118 -118 0
46 -129 0
46 -130 0
129 -129 0
130 -130 0
60 -141 0
60 -142 0
141 -141 0
142 -142 0
74 -153 0
74 -154 0
153 -153 0
154 -154 0
5 -179 -93 0
-5 179 -93 0
5 179 -94 0
-5 -179 -94 0
19 -179 -105 0
-19 179 -105 0
19 179 -106 0
-19 -179 -106 0
33 -179 -117 0
-33 179 -117 0
33 179 -118 0
-33 -179 -118 0
47 -179 -129 0
-47 179 -129 0
47 179 -130 0
-47 -179 -130 0
61 -179 -141 0
-61 179 -141 0
61 179 -142 0
-61 -179 -142 0
75 -179 -153 0
-75 179 -153 0
75 179 -154 0
-75 -179 -154 0
-6 -93 0
-6 -94 0
93 -93 0
94 -94 0
-20 -105 0
-20 -106 0
105 -105 0
106 -106 0
-34 -117 0
-34 -118 0
117 -117 0
118 -118 0
-48 -129 0
-48 -130 0
129 -129 0
130 -130 0
-62 -141 0
-62 -142 0
141 -141 0
142 -142 0
-76 -153 0
-76 -154 0
153 -153 0
154 -154 0
7 -180 -93 0
-7 180 -93 0
7 180 -94 0
-7 -180 -94 0
21 -180 -105 0
-21 180 -105 0
21 180 -106 0
-21 -180 -106 0
35 -180 -117 0
-35 180 -117 0
35 180 -118 0
-35 -180 -118 0
49 -180 -129 0
-49 180 -129 0
49 180 -130 0
-49 -180 -130 0
63 -180 -141 0
-63 180 -141 0
63 180 -142 0
-63 -180 -142 0
77 -180 -153 0
-77 180 -153 0
77 180 -154 0
-77 -180 -154 0
8 -93 0
8 -94 0
93 -93 0
94 -94 0
22 -105 0
22 -106 0
105 -105 0
106 -106 0
36 -117 0
36 -118 0
117 -117 0
118 -118 0
50 -129 0
50 -130 0
129 -129 0
130 -130 0
64 -141 0
64 -142 0
141 -141 0
142 -142 0
78 -153 0
78 -154 0
153 -153 0
154 -154 0
9 -181 -93 0
-9 181 -93 0
9 181 -94 0
-9 -181 -94 0
23 -181 -105 0
-23 181 -105 0
23 181 -106 0
-23 -181 -106 0
37 -181 -117 0
-37 181 -117 0
37 181 -118 0
-37 -181 -118 0
51 -181 -129 0
-51 181 -129 0
51 181 -130 0
-51 -181 -130 0
65 -181 -141 0
-65 181 -141 0
65 181 -142 0
-65 -181 -142 0
79 -181 -153 0
-79 181 -153 0
79 181 -154 0
-79 -181 -154 0
10 -182 -93 0
-10 182 -93 0
10 182 -94 0
-10 -182 -94 0
24 -182 -105 0
-24 182 -105 0
24 182 -106 0
-24 -182 -106 0
38 -182 -117 0
-38 182 -117 0
38 182 -118 0
-38 -182 -118 0
52 -182 -129 0
-52 182 -129 0
52 182 -130 0
-52 -182 -130 0
66 -182 -141 0
-66 182 -141 0
66 182 -142 0
-66 -182 -142 0
80 -182 -153 0
-80 182 -153 0
80 182 -154 0
-80 -182 -154 0
11 -183 -93 0
-11 183 -93 0
11 183 -94 0
-11 -183 -94 0
25 -183 -105 0
-25 183 -105 0
25 183 -106 0
-25 -183 -106 0
39 -183 -117 0
-39 183 -117 0
39 183 -118 0
-39 -183 -118 0
53 -183 -129 0
-53 183 -129 0
53 183 -130 0
-53 -183 -130 0
67 -183 -141 0
-67 183 -141 0
67 183 -142 0
-67 -183 -142 0
81 -183 -153 0
-81 183 -153 0
81 183 -154 0
-81 -183 -154 0
12 -93 0
12 -94 0
93 -93 0
94 -94 0
26 -105 0
26 -106 0
105 -105 0
106 -106 0
40 -117 0
40 -118 0
117 -117 0
118 -118 0
54 -129 0
54 -130 0
129 -129 0
130 -130 0
68 -141 0
68 -142 0
141 -141 0
142 -142 0
82 -153 0
82 -154 0
153 -153 0
154 -154 0
13 -184 -93 0
-13 184 -93 0
13 184 -94 0
-13 -184 -94 0
27 -184 -105 0
-27 184 -105 0
27 184 -106 0
-27 -184 -106 0
41 -184 -117 0
-41 184 -117 0
41 184 -118 0
-41 -184 -118 0
55 -184 -129 0
-55 184 -129 0
55 184 -130 0
-55 -184 -130 0
69 -184 -141 0
-69 184 -141 0
69 184 -142 0
-69 -184 -142 0
83 -184 -153 0
-83 184 -153 0
83 184 -154 0
-83 -184 -154 0
14 -93 0
14 -94 0
93 -93 0
94 -94 0
28 -105 0
28 -106 0
105 -105 0
106 -106 0
42 -117 0
42 -118 0
117 -117 0
118 -118 0
56 -129 0
56 -130 0
129 -129 0
130 -130 0
70 -141 0
70 -142 0
141 -141 0
142 -142 0
84 -153 0
84 -154 0
153 -153 0
154 -154 0
-249 93 0
249 -93 0
-250 94 0
249 -94 0
-249 -93 0
-250 -94 0
-261 93 249 0
261 -93 0
261 -249 0
-262 94 250 0
262 -94 0
262 -250 0
-261 -105 0
-262 -106 0
-273 105 261 0
273 -105 0
273 -261 0
-274 106 262 0
274 -106 0
274 -262 0
-273 -117 0
-274 -118 0
-285 117 273 0
285 -117 0
285 -273 0
-286 118 274 0
286 -118 0
286 -274 0
-285 -129 0
-286 -130 0
-297 129 285 0
297 -129 0
297 -285 0
-298 130 286 0
298 -130 0
298 -286 0
-297 -141 0
-298 -142 0
-309 141 297 0
309 -141 0
309 -297 0
-310 142 298 0
310 -142 0
310 -298 0
-309 -153 0
-310 -154 0
309 0
310 0
1 -185 -95 0
-1 185 -95 0
1 185 -96 0
-1 -185 -96 0
15 -185 -107 0
-15 185 -107 0
15 185 -108 0
-15 -185 -108 0
29 -185 -119 0
-29 185 -119 0
29 185 -120 0
-29 -185 -120 0
43 -185 -131 0
-43 185 -131 0
43 185 -132 0
-43 -185 -132 0
57 -185 -143 0
-57 185 -143 0
57 185 -144 0
-57 -185 -144 0
71 -185 -155 0
-71 185 -155 0
71 185 -156 0
-71 -185 -156 0
2 -95 0
2 -96 0
95 -95 0
96 -96 0
16 -107 0
16 -108 0
107 -107 0
108 -108 0
30 -119 0
30 -120 0
119 -119 0
120 -120 0
44 -131 0
44 -132 0
131 -131 0
132 -132 0
58 -143 0
58 -144 0
143 -143 0
144 -144 0
72 -155 0
72 -156 0
155 -155 0
156 -156 0
3 -95 0
3 -96 0
95 -95 0
96 -96 0
17 -107 0
17 -108 0
107 -107 0
108 -108 0
31 -119 0
31 -120 0
119 -119 0
120 -120 0
45 -131 0
45 -132 0
131 -131 0
132 -132 0
59 -143 0
59 -144 0
143 -143 0
144 -144 0
73 -155 0
73 -156 0
155 -155 0
156 -156 0
4 -186 -95 0
-4 186 -95 0
4 186 -96 0
-4 -186 -96 0
18 -186 -107 0
-18 186 -107 0
18 186 -108 0
-18 -186 -108 0
32 -186 -119 0
-32 186 -119 0
32 186 -120 0
-32 -186 -120 0
46 -186 -131 0
-46 186 -131 0
46 186 -132 0
-46 -186 -132 0
60 -186 -143 0
-60 186 -143 0
60 186 -144 0
-60 -186 -144 0
74 -186 -155 0
-74 186 -155 0
74 186 -156 0
-74 -186 -156 0
5 -95 0
5 -96 0
95 -95 0
96 -96 0
19 -107 0
19 -108 0
107 -107 0
108 -108 0
33 -119 0
33 -120 0
119 -119 0
120 -120 0
47 -131 0
47 -132 0
131 -131 0
132 -132 0
61 -143 0
61 -144 0
143 -143 0
144 -144 0
75 -155 0
75 -156 0
155 -155 0
156 -156 0
6 -95 0
6 -96 0
95 -95 0
96 -96 0
20 -107 0
20 -108 0
107 -107 0
108 -108 0
34 -119 0
34 -120 0
119 -119 0
120 -120 0
48 -131 0
48 -132 0
131 -131 0
132 -132 0
62 -143 0
62 -144 0
143 -143 0
144 -144 0
76 -155 0
76 -156 0
155 -155 0
156 -156 0
7 -95 0
7 -96 0
95 -95 0
96 -96 0
21 -107 0
21 -108 0
107 -107 0
108 -108 0
35 -119 0
35 -120 0
119 -119 0
120 -120 0
49 -131 0
49 -132 0
131 -131 0
132 -132 0
63 -143 0
63 -144 0
143 -143 0
144 -144 0
77 -155 0
77 -156 0
155 -155 0
156 -156 0
-8 -95 0
-8 -96 0
95 -95 0
96 -96 0
-22 -107 0
-22 -108 0
107 -107 0
108 -108 0
-36 -119 0
-36 -120 0
119 -119 0
120 -120 0
-50 -131 0
-50 -132 0
131 -131 0
132 -132 0
-64 -143 0
-64 -144 0
143 -143 0
144 -144 0
-78 -155 0
-78 -156 0
155 -155 0
156 -156 0
9 -95 0
9 -96 0
95 -95 0
96 -96 0
23 -107 0
23 -108 0
107 -107 0
108 -108 0
37 -119 0
37 -120 0
119 -119 0
120 -120 0
51 -131 0
51 -132 0
131 -131 0
132 -132 0
65 -143 0
65 -144 0
143 -143 0
144 -144 0
79 -155 0
79 -156 0
155 -155 0
156 -156 0
-10 -95 0
-10 -96 0
95 -95 0
96 -96 0
-24 -107 0
-24 -108 0
107 -107 0
108 -108 0
-38 -119 0
-38 -120 0
119 -119 0
120 -120 0
-52 -131 0
-52 -132 0
131 -131 0
132 -132 0
-66 -143 0
-66 -144 0
143 -143 0
144 -144 0
-80 -155 0
-80 -156 0
155 -155 0
156 -156 0
11 -95 0
11 -96 0
95 -95 0
96 -96 0
25 -107 0
25 -108 0
107 -107 0
108 -108 0
39 -119 0
39 -120 0
119 -119 0
120 -120 0
53 -131 0
53 -132 0
131 -131 0
132 -132 0
67 -143 0
67 -144 0
143 -143 0
144 -144 0
81 -155 0
81 -156 0
155 -155 0
156 -156 0
12 -95 0
12 -96 0
95 -95 0
96 -96 0
26 -107 0
26 -108 0
107 -107 0
108 -108 0
40 -119 0
40 -120 0
119 -119 0
120 -120 0
54 -131 0
54 -132 0
131 -131 0
132 -132 0
68 -143 0
68 -144 0
143 -143 0
144 -144 0
82 -155 0
82 -156 0
155 -155 0
156 -156 0
13 -95 0
13 -96 0
95 -95 0
96 -96 0
27 -107 0
27 -108 0
107 -107 0
108 -108 0
41 -119 0
41 -120 0
119 -119 0
120 -120 0
55 -131 0
55 -132 0
131 -131 0
132 -132 0
69 -143 0
69 -144 0
143 -143 0
144 -144 0
83 -155 0
83 -156 0
155 -155 0
156 -156 0
-14 -95 0
-14 -96 0
95 -95 0
96 -96 0
-28 -107 0
-28 -108 0
107 -107 0
108 -108 0
-42 -119 0
-42 -120 0
119 -119 0
120 -120 0
-56 -131 0
-56 -132 0
131 -131 0
132 -132 0
-70 -143 0
-70 -144 0
143 -143 0
144 -144 0
-84 -155 0
-84 -156 0
155 -155 0
156 -156 0
-251 95 0
251 -95 0
-252 96 0
251 -96 0
-251 -95 0
-252 -96 0
-263 95 251 0
263 -95 0
263 -251 0
-264 96 252 0
264 -96 0
264 -252 0
-263 -107 0
-264 -108 0
-275 107 263 0
275 -107 0
275 -263 0
-276 108 264 0
276 -108 0
276 -264 0
-275 -119 0
-276 -120 0
-287 119 275 0
287 -119 0
287 -275 0
-288 120 276 0
288 -120 0
288 -276 0
-287 -131 0
-288 -132 0
-299 131 287 0
299 -131 0
299 -287 0
-300 132 288 0
300 -132 0
300 -288 0
-299 -143 0
-300 -144 0
-311 143 299 0
311 -143 0
311 -299 0
-312 144 300 0
312 -144 0
312 -300 0
-311 -155 0
-312 -156 0
311 0
312 0
